% Auto-generated by scripts/generate_dzn.py
% problem_type   = regex
% instance       = regex_65
% source_json    = instances_json/1_medium_blowup/regex_65.json
% blowup         = 7.2
% representation = DFA

mode = 0;

var_count = 10;
Q = 72;
S = 2;
q0 = 1;
F = {46, 47, 48, 49, 50, 51, 52, 53, 54, 55, 56, 57, 58, 59, 60, 61, 62, 63, 64, 65, 66, 67, 68, 69, 70, 71, 72};
d_dfa = array2d(1..72, 1..2, [
  2, 1,
  3, 1,
  4, 1,
  6, 5,
  8, 7,
  10, 9,
  12, 11,
  13, 11,
  15, 14,
  17, 16,
  19, 18,
  20, 18,
  21, 18,
  23, 22,
  24, 22,
  26, 25,
  28, 27,
  30, 29,
  31, 29,
  32, 29,
  34, 33,
  36, 35,
  37, 35,
  38, 35,
  40, 39,
  41, 39,
  43, 42,
  45, 44,
  47, 46,
  48, 46,
  49, 46,
  51, 50,
  53, 52,
  55, 54,
  57, 56,
  58, 56,
  59, 56,
  61, 60,
  63, 62,
  64, 62,
  65, 62,
  67, 66,
  68, 66,
  70, 69,
  72, 71,
  2, 1,
  3, 1,
  4, 1,
  6, 5,
  8, 7,
  10, 9,
  12, 11,
  13, 11,
  15, 14,
  17, 16,
  47, 46,
  48, 46,
  49, 46,
  51, 50,
  53, 52,
  55, 54,
  57, 56,
  58, 56,
  59, 56,
  61, 60,
  63, 62,
  64, 62,
  65, 62,
  67, 66,
  68, 66,
  70, 69,
  72, 71
]);
d_nfa = array2d(1..72, 1..2, [
  {}, {},
  {}, {},
  {}, {},
  {}, {},
  {}, {},
  {}, {},
  {}, {},
  {}, {},
  {}, {},
  {}, {},
  {}, {},
  {}, {},
  {}, {},
  {}, {},
  {}, {},
  {}, {},
  {}, {},
  {}, {},
  {}, {},
  {}, {},
  {}, {},
  {}, {},
  {}, {},
  {}, {},
  {}, {},
  {}, {},
  {}, {},
  {}, {},
  {}, {},
  {}, {},
  {}, {},
  {}, {},
  {}, {},
  {}, {},
  {}, {},
  {}, {},
  {}, {},
  {}, {},
  {}, {},
  {}, {},
  {}, {},
  {}, {},
  {}, {},
  {}, {},
  {}, {},
  {}, {},
  {}, {},
  {}, {},
  {}, {},
  {}, {},
  {}, {},
  {}, {},
  {}, {},
  {}, {},
  {}, {},
  {}, {},
  {}, {},
  {}, {},
  {}, {},
  {}, {},
  {}, {},
  {}, {},
  {}, {},
  {}, {},
  {}, {},
  {}, {},
  {}, {},
  {}, {},
  {}, {},
  {}, {},
  {}, {},
  {}, {}
]);
